nK = 2823;
nT = 8;
nI = 21;
L = 35;
TT = 661;
np = 1;
nc = 3;
b = [45, 50, 47, 28, 32, 63, 50, 55, 34, 55, 68, 40, 21, 29, 23, 51, 60, 24, 27, 46, 28];
d = [88, 130, 133, 96, 58, 100, 101, 122, 105, 86, 147, 121, 94, 149, 61, 79, 108, 88, 75, 120, 61];
m = [1.7, 1.7, 1.9, 1.4, 1.5, 2.4, 2.1, 1.2, 1.8, 1.2, 2.4, 2.1, 1.2, 1.1, 1.5, 1.6, 1.2, 2.1, 2, 1.8, 2.2];
pt = [0.3, 0.31, 0.29, 0.33, 0.23, 0.28, 0.25, 0.32];
st = [13.8, 14.88, 13.92, 13.86, 11.73, 16.8, 10, 12.8];
arc = {<1, 0, 1, 1, 0, 0, 0, [1, 1, 1, 1, 1, 1, 1, 1]>, <2, 1, 2, 1, 0, 0, 0, [1, 1, 1, 1, 1, 1, 1, 1]>, <3, 2, 3, 1, 0, 0, 0, [1, 1, 1, 1, 1, 1, 1, 1]>, <4, 3, 4, 1, 0, 0, 0, [1, 1, 1, 1, 1, 1, 1, 1]>, <5, 4, 5, 1, 0, 0, 0, [1, 1, 1, 1, 1, 1, 1, 1]>, <6, 5, 6, 1, 0, 0, 0, [1, 1, 1, 1, 1, 1, 1, 1]>, <7, 6, 7, 1, 0, 0, 0, [1, 1, 1, 1, 1, 1, 1, 1]>, <8, 7, 8, 1, 0, 0, 0, [1, 1, 1, 1, 1, 1, 1, 1]>, <9, 8, 9, 1, 0, 0, 0, [1, 1, 1, 1, 1, 1, 1, 1]>, <10, 9, 10, 1, 0, 0, 0, [1, 1, 1, 1, 1, 1, 1, 1]>, <11, 10, 11, 1, 0, 0, 0, [1, 1, 1, 1, 1, 1, 1, 1]>, <12, 11, 12, 1, 0, 0, 0, [1, 1, 1, 1, 1, 1, 1, 1]>, <13, 12, 13, 1, 0, 0, 0, [1, 1, 1, 1, 1, 1, 1, 1]>, <14, 13, 14, 1, 0, 0, 0, [1, 1, 1, 1, 1, 1, 1, 1]>, <15, 14, 15, 1, 0, 0, 0, [1, 1, 1, 1, 1, 1, 1, 1]>, <16, 15, 16, 1, 0, 0, 0, [1, 1, 1, 1, 1, 1, 1, 1]>, <17, 16, 17, 1, 0, 0, 0, [1, 1, 1, 1, 1, 1, 1, 1]>, <18, 17, 18, 1, 0, 0, 0, [1, 1, 1, 1, 1, 1, 1, 1]>, <19, 18, 19, 1, 0, 0, 0, [1, 1, 1, 1, 1, 1, 1, 1]>, <20, 19, 20, 1, 0, 0, 0, [1, 1, 1, 1, 1, 1, 1, 1]>, <21, 20, 21, 1, 0, 0, 0, [1, 1, 1, 1, 1, 1, 1, 1]>, <22, 21, 22, 1, 0, 0, 0, [1, 1, 1, 1, 1, 1, 1, 1]>, <23, 22, 23, 1, 0, 0, 0, [1, 1, 1, 1, 1, 1, 1, 1]>, <24, 23, 24, 1, 0, 0, 0, [1, 1, 1, 1, 1, 1, 1, 1]>, <25, 24, 25, 1, 0, 0, 0, [1, 1, 1, 1, 1, 1, 1, 1]>, <26, 25, 26, 1, 0, 0, 0, [1, 1, 1, 1, 1, 1, 1, 1]>, <27, 26, 27, 1, 0, 0, 0, [1, 1, 1, 1, 1, 1, 1, 1]>, <28, 27, 28, 1, 0, 0, 0, [1, 1, 1, 1, 1, 1, 1, 1]>, <29, 28, 29, 1, 0, 0, 0, [1, 1, 1, 1, 1, 1, 1, 1]>, <30, 29, 30, 1, 0, 0, 0, [1, 1, 1, 1, 1, 1, 1, 1]>, <31, 30, 31, 1, 0, 0, 0, [1, 1, 1, 1, 1, 1, 1, 1]>, <32, 31, 32, 1, 0, 0, 0, [1, 1, 1, 1, 1, 1, 1, 1]>, <33, 32, 33, 1, 0, 0, 0, [1, 1, 1, 1, 1, 1, 1, 1]>, <34, 33, 34, 1, 0, 0, 0, [1, 1, 1, 1, 1, 1, 1, 1]>, <35, 34, 35, 1, 0, 0, 0, [1, 1, 1, 1, 1, 1, 1, 1]>, <36, 0, 17, 17, 1, 0, 1, [0, 0, 0, 1, 1, 1, 1, 0]>, <37, 1, 18, 17, 1, 0, 1, [0, 0, 0, 1, 1, 1, 1, 0]>, <38, 2, 19, 17, 1, 0, 1, [0, 0, 0, 1, 1, 1, 1, 0]>, <39, 3, 20, 17, 1, 0, 1, [0, 0, 0, 1, 1, 1, 1, 0]>, <40, 4, 21, 17, 1, 0, 1, [0, 0, 0, 1, 1, 1, 1, 0]>, <41, 5, 22, 17, 1, 0, 1, [0, 0, 0, 1, 1, 1, 1, 0]>, <42, 6, 23, 17, 1, 0, 1, [0, 0, 0, 1, 1, 1, 1, 0]>, <43, 9, 26, 17, 1, 0, 1, [0, 0, 0, 1, 1, 1, 1, 0]>, <44, 10, 27, 17, 1, 0, 1, [0, 0, 0, 1, 1, 1, 1, 0]>, <45, 11, 28, 17, 1, 0, 1, [0, 0, 0, 1, 1, 1, 1, 0]>, <46, 12, 29, 17, 1, 0, 1, [0, 0, 0, 1, 1, 1, 1, 0]>, <47, 13, 30, 17, 1, 0, 1, [0, 0, 0, 1, 1, 1, 1, 0]>, <48, 14, 31, 17, 1, 0, 1, [0, 0, 0, 1, 1, 1, 1, 0]>, <49, 15, 32, 17, 1, 0, 1, [0, 0, 0, 1, 1, 1, 1, 0]>, <50, 16, 33, 17, 1, 0, 1, [0, 0, 0, 1, 1, 1, 1, 0]>, <51, 17, 34, 17, 1, 0, 1, [0, 0, 0, 1, 1, 1, 1, 0]>, <52, 18, 35, 17, 1, 0, 1, [0, 0, 0, 1, 1, 1, 1, 0]>, <53, 0, 22, 22, 2, 0, 1, [0, 0, 0, 1, 1, 1, 1, 0]>, <54, 1, 23, 22, 2, 0, 1, [0, 0, 0, 1, 1, 1, 1, 0]>, <55, 2, 24, 22, 2, 0, 1, [0, 0, 0, 1, 1, 1, 1, 0]>, <56, 3, 25, 22, 2, 0, 1, [0, 0, 0, 1, 1, 1, 1, 0]>, <57, 4, 26, 22, 2, 0, 1, [0, 0, 0, 1, 1, 1, 1, 0]>, <58, 5, 27, 22, 2, 0, 1, [0, 0, 0, 1, 1, 1, 1, 0]>, <59, 6, 28, 22, 2, 0, 1, [0, 0, 0, 1, 1, 1, 1, 0]>, <60, 7, 29, 22, 2, 0, 1, [0, 0, 0, 1, 1, 1, 1, 0]>, <61, 8, 30, 22, 2, 0, 1, [0, 0, 0, 1, 1, 1, 1, 0]>, <62, 9, 31, 22, 2, 0, 1, [0, 0, 0, 1, 1, 1, 1, 0]>, <63, 10, 32, 22, 2, 0, 1, [0, 0, 0, 1, 1, 1, 1, 0]>, <64, 11, 33, 22, 2, 0, 1, [0, 0, 0, 1, 1, 1, 1, 0]>, <65, 12, 34, 22, 2, 0, 1, [0, 0, 0, 1, 1, 1, 1, 0]>, <66, 13, 35, 22, 2, 0, 1, [0, 0, 0, 1, 1, 1, 1, 0]>, <67, 0, 19, 19, 3, 0, 0, [0, 0, 0, 0, 1, 1, 1, 1]>, <68, 1, 20, 19, 3, 0, 0, [0, 0, 0, 0, 1, 1, 1, 1]>, <69, 2, 21, 19, 3, 0, 0, [0, 0, 0, 0, 1, 1, 1, 1]>, <70, 3, 22, 19, 3, 0, 0, [0, 0, 0, 0, 1, 1, 1, 1]>, <71, 4, 23, 19, 3, 0, 0, [0, 0, 0, 0, 1, 1, 1, 1]>, <72, 5, 24, 19, 3, 0, 0, [0, 0, 0, 0, 1, 1, 1, 1]>, <73, 6, 25, 19, 3, 0, 0, [0, 0, 0, 0, 1, 1, 1, 1]>, <74, 7, 26, 19, 3, 0, 0, [0, 0, 0, 0, 1, 1, 1, 1]>, <75, 8, 27, 19, 3, 0, 0, [0, 0, 0, 0, 1, 1, 1, 1]>, <76, 9, 28, 19, 3, 0, 0, [0, 0, 0, 0, 1, 1, 1, 1]>, <77, 10, 29, 19, 3, 0, 0, [0, 0, 0, 0, 1, 1, 1, 1]>, <78, 11, 30, 19, 3, 0, 0, [0, 0, 0, 0, 1, 1, 1, 1]>, <79, 12, 31, 19, 3, 0, 0, [0, 0, 0, 0, 1, 1, 1, 1]>, <80, 13, 32, 19, 3, 0, 0, [0, 0, 0, 0, 1, 1, 1, 1]>, <81, 14, 33, 19, 3, 0, 0, [0, 0, 0, 0, 1, 1, 1, 1]>, <82, 15, 34, 19, 3, 0, 0, [0, 0, 0, 0, 1, 1, 1, 1]>, <83, 16, 35, 19, 3, 0, 0, [0, 0, 0, 0, 1, 1, 1, 1]>, <84, 0, 17, 17, 4, 0, 1, [0, 1, 1, 1, 1, 0, 0, 0]>, <85, 1, 18, 17, 4, 0, 1, [0, 1, 1, 1, 1, 0, 0, 0]>, <86, 2, 19, 17, 4, 0, 1, [0, 1, 1, 1, 1, 0, 0, 0]>, <87, 3, 20, 17, 4, 0, 1, [0, 1, 1, 1, 1, 0, 0, 0]>, <88, 4, 21, 17, 4, 0, 1, [0, 1, 1, 1, 1, 0, 0, 0]>, <89, 5, 22, 17, 4, 0, 1, [0, 1, 1, 1, 1, 0, 0, 0]>, <90, 6, 23, 17, 4, 0, 1, [0, 1, 1, 1, 1, 0, 0, 0]>, <91, 9, 26, 17, 4, 0, 1, [0, 1, 1, 1, 1, 0, 0, 0]>, <92, 10, 27, 17, 4, 0, 1, [0, 1, 1, 1, 1, 0, 0, 0]>, <93, 11, 28, 17, 4, 0, 1, [0, 1, 1, 1, 1, 0, 0, 0]>, <94, 12, 29, 17, 4, 0, 1, [0, 1, 1, 1, 1, 0, 0, 0]>, <95, 13, 30, 17, 4, 0, 1, [0, 1, 1, 1, 1, 0, 0, 0]>, <96, 14, 31, 17, 4, 0, 1, [0, 1, 1, 1, 1, 0, 0, 0]>, <97, 15, 32, 17, 4, 0, 1, [0, 1, 1, 1, 1, 0, 0, 0]>, <98, 16, 33, 17, 4, 0, 1, [0, 1, 1, 1, 1, 0, 0, 0]>, <99, 17, 34, 17, 4, 0, 1, [0, 1, 1, 1, 1, 0, 0, 0]>, <100, 18, 35, 17, 4, 0, 1, [0, 1, 1, 1, 1, 0, 0, 0]>, <101, 0, 20, 20, 5, 0, 1, [1, 1, 1, 1, 0, 0, 0, 0]>, <102, 1, 21, 20, 5, 0, 1, [1, 1, 1, 1, 0, 0, 0, 0]>, <103, 2, 22, 20, 5, 0, 1, [1, 1, 1, 1, 0, 0, 0, 0]>, <104, 3, 23, 20, 5, 0, 1, [1, 1, 1, 1, 0, 0, 0, 0]>, <105, 4, 24, 20, 5, 0, 1, [1, 1, 1, 1, 0, 0, 0, 0]>, <106, 5, 25, 20, 5, 0, 1, [1, 1, 1, 1, 0, 0, 0, 0]>, <107, 6, 26, 20, 5, 0, 1, [1, 1, 1, 1, 0, 0, 0, 0]>, <108, 7, 27, 20, 5, 0, 1, [1, 1, 1, 1, 0, 0, 0, 0]>, <109, 8, 28, 20, 5, 0, 1, [1, 1, 1, 1, 0, 0, 0, 0]>, <110, 9, 29, 20, 5, 0, 1, [1, 1, 1, 1, 0, 0, 0, 0]>, <111, 10, 30, 20, 5, 0, 1, [1, 1, 1, 1, 0, 0, 0, 0]>, <112, 11, 31, 20, 5, 0, 1, [1, 1, 1, 1, 0, 0, 0, 0]>, <113, 12, 32, 20, 5, 0, 1, [1, 1, 1, 1, 0, 0, 0, 0]>, <114, 13, 33, 20, 5, 0, 1, [1, 1, 1, 1, 0, 0, 0, 0]>, <115, 14, 34, 20, 5, 0, 1, [1, 1, 1, 1, 0, 0, 0, 0]>, <116, 15, 35, 20, 5, 0, 1, [1, 1, 1, 1, 0, 0, 0, 0]>, <117, 0, 19, 19, 6, 1, 0, [0, 0, 0, 1, 1, 1, 1, 0]>, <118, 1, 20, 19, 6, 1, 0, [0, 0, 0, 1, 1, 1, 1, 0]>, <119, 2, 21, 19, 6, 1, 0, [0, 0, 0, 1, 1, 1, 1, 0]>, <120, 3, 22, 19, 6, 1, 0, [0, 0, 0, 1, 1, 1, 1, 0]>, <121, 4, 23, 19, 6, 1, 0, [0, 0, 0, 1, 1, 1, 1, 0]>, <122, 5, 24, 19, 6, 1, 0, [0, 0, 0, 1, 1, 1, 1, 0]>, <123, 6, 25, 19, 6, 1, 0, [0, 0, 0, 1, 1, 1, 1, 0]>, <124, 7, 26, 19, 6, 1, 0, [0, 0, 0, 1, 1, 1, 1, 0]>, <125, 8, 27, 19, 6, 1, 0, [0, 0, 0, 1, 1, 1, 1, 0]>, <126, 9, 28, 19, 6, 1, 0, [0, 0, 0, 1, 1, 1, 1, 0]>, <127, 10, 29, 19, 6, 1, 0, [0, 0, 0, 1, 1, 1, 1, 0]>, <128, 11, 30, 19, 6, 1, 0, [0, 0, 0, 1, 1, 1, 1, 0]>, <129, 12, 31, 19, 6, 1, 0, [0, 0, 0, 1, 1, 1, 1, 0]>, <130, 13, 32, 19, 6, 1, 0, [0, 0, 0, 1, 1, 1, 1, 0]>, <131, 14, 33, 19, 6, 1, 0, [0, 0, 0, 1, 1, 1, 1, 0]>, <132, 15, 34, 19, 6, 1, 0, [0, 0, 0, 1, 1, 1, 1, 0]>, <133, 16, 35, 19, 6, 1, 0, [0, 0, 0, 1, 1, 1, 1, 0]>, <134, 0, 22, 22, 7, 0, 1, [1, 1, 1, 0, 0, 0, 0, 1]>, <135, 1, 23, 22, 7, 0, 1, [1, 1, 1, 0, 0, 0, 0, 1]>, <136, 2, 24, 22, 7, 0, 1, [1, 1, 1, 0, 0, 0, 0, 1]>, <137, 3, 25, 22, 7, 0, 1, [1, 1, 1, 0, 0, 0, 0, 1]>, <138, 4, 26, 22, 7, 0, 1, [1, 1, 1, 0, 0, 0, 0, 1]>, <139, 5, 27, 22, 7, 0, 1, [1, 1, 1, 0, 0, 0, 0, 1]>, <140, 6, 28, 22, 7, 0, 1, [1, 1, 1, 0, 0, 0, 0, 1]>, <141, 7, 29, 22, 7, 0, 1, [1, 1, 1, 0, 0, 0, 0, 1]>, <142, 8, 30, 22, 7, 0, 1, [1, 1, 1, 0, 0, 0, 0, 1]>, <143, 9, 31, 22, 7, 0, 1, [1, 1, 1, 0, 0, 0, 0, 1]>, <144, 10, 32, 22, 7, 0, 1, [1, 1, 1, 0, 0, 0, 0, 1]>, <145, 11, 33, 22, 7, 0, 1, [1, 1, 1, 0, 0, 0, 0, 1]>, <146, 12, 34, 22, 7, 0, 1, [1, 1, 1, 0, 0, 0, 0, 1]>, <147, 13, 35, 22, 7, 0, 1, [1, 1, 1, 0, 0, 0, 0, 1]>, <148, 0, 22, 22, 8, 0, 0, [1, 1, 1, 0, 0, 0, 0, 1]>, <149, 1, 23, 22, 8, 0, 0, [1, 1, 1, 0, 0, 0, 0, 1]>, <150, 2, 24, 22, 8, 0, 0, [1, 1, 1, 0, 0, 0, 0, 1]>, <151, 3, 25, 22, 8, 0, 0, [1, 1, 1, 0, 0, 0, 0, 1]>, <152, 4, 26, 22, 8, 0, 0, [1, 1, 1, 0, 0, 0, 0, 1]>, <153, 5, 27, 22, 8, 0, 0, [1, 1, 1, 0, 0, 0, 0, 1]>, <154, 6, 28, 22, 8, 0, 0, [1, 1, 1, 0, 0, 0, 0, 1]>, <155, 7, 29, 22, 8, 0, 0, [1, 1, 1, 0, 0, 0, 0, 1]>, <156, 8, 30, 22, 8, 0, 0, [1, 1, 1, 0, 0, 0, 0, 1]>, <157, 9, 31, 22, 8, 0, 0, [1, 1, 1, 0, 0, 0, 0, 1]>, <158, 10, 32, 22, 8, 0, 0, [1, 1, 1, 0, 0, 0, 0, 1]>, <159, 11, 33, 22, 8, 0, 0, [1, 1, 1, 0, 0, 0, 0, 1]>, <160, 12, 34, 22, 8, 0, 0, [1, 1, 1, 0, 0, 0, 0, 1]>, <161, 13, 35, 22, 8, 0, 0, [1, 1, 1, 0, 0, 0, 0, 1]>, <162, 0, 19, 19, 9, 0, 1, [0, 0, 0, 1, 1, 1, 1, 0]>, <163, 1, 20, 19, 9, 0, 1, [0, 0, 0, 1, 1, 1, 1, 0]>, <164, 2, 21, 19, 9, 0, 1, [0, 0, 0, 1, 1, 1, 1, 0]>, <165, 3, 22, 19, 9, 0, 1, [0, 0, 0, 1, 1, 1, 1, 0]>, <166, 4, 23, 19, 9, 0, 1, [0, 0, 0, 1, 1, 1, 1, 0]>, <167, 5, 24, 19, 9, 0, 1, [0, 0, 0, 1, 1, 1, 1, 0]>, <168, 6, 25, 19, 9, 0, 1, [0, 0, 0, 1, 1, 1, 1, 0]>, <169, 7, 26, 19, 9, 0, 1, [0, 0, 0, 1, 1, 1, 1, 0]>, <170, 8, 27, 19, 9, 0, 1, [0, 0, 0, 1, 1, 1, 1, 0]>, <171, 9, 28, 19, 9, 0, 1, [0, 0, 0, 1, 1, 1, 1, 0]>, <172, 10, 29, 19, 9, 0, 1, [0, 0, 0, 1, 1, 1, 1, 0]>, <173, 11, 30, 19, 9, 0, 1, [0, 0, 0, 1, 1, 1, 1, 0]>, <174, 12, 31, 19, 9, 0, 1, [0, 0, 0, 1, 1, 1, 1, 0]>, <175, 13, 32, 19, 9, 0, 1, [0, 0, 0, 1, 1, 1, 1, 0]>, <176, 14, 33, 19, 9, 0, 1, [0, 0, 0, 1, 1, 1, 1, 0]>, <177, 15, 34, 19, 9, 0, 1, [0, 0, 0, 1, 1, 1, 1, 0]>, <178, 16, 35, 19, 9, 0, 1, [0, 0, 0, 1, 1, 1, 1, 0]>, <179, 0, 20, 20, 10, 0, 0, [1, 0, 0, 0, 0, 1, 1, 1]>, <180, 1, 21, 20, 10, 0, 0, [1, 0, 0, 0, 0, 1, 1, 1]>, <181, 2, 22, 20, 10, 0, 0, [1, 0, 0, 0, 0, 1, 1, 1]>, <182, 3, 23, 20, 10, 0, 0, [1, 0, 0, 0, 0, 1, 1, 1]>, <183, 4, 24, 20, 10, 0, 0, [1, 0, 0, 0, 0, 1, 1, 1]>, <184, 5, 25, 20, 10, 0, 0, [1, 0, 0, 0, 0, 1, 1, 1]>, <185, 6, 26, 20, 10, 0, 0, [1, 0, 0, 0, 0, 1, 1, 1]>, <186, 7, 27, 20, 10, 0, 0, [1, 0, 0, 0, 0, 1, 1, 1]>, <187, 8, 28, 20, 10, 0, 0, [1, 0, 0, 0, 0, 1, 1, 1]>, <188, 9, 29, 20, 10, 0, 0, [1, 0, 0, 0, 0, 1, 1, 1]>, <189, 10, 30, 20, 10, 0, 0, [1, 0, 0, 0, 0, 1, 1, 1]>, <190, 11, 31, 20, 10, 0, 0, [1, 0, 0, 0, 0, 1, 1, 1]>, <191, 12, 32, 20, 10, 0, 0, [1, 0, 0, 0, 0, 1, 1, 1]>, <192, 13, 33, 20, 10, 0, 0, [1, 0, 0, 0, 0, 1, 1, 1]>, <193, 14, 34, 20, 10, 0, 0, [1, 0, 0, 0, 0, 1, 1, 1]>, <194, 15, 35, 20, 10, 0, 0, [1, 0, 0, 0, 0, 1, 1, 1]>, <195, 0, 17, 17, 11, 0, 1, [1, 1, 0, 0, 0, 0, 1, 1]>, <196, 1, 18, 17, 11, 0, 1, [1, 1, 0, 0, 0, 0, 1, 1]>, <197, 2, 19, 17, 11, 0, 1, [1, 1, 0, 0, 0, 0, 1, 1]>, <198, 3, 20, 17, 11, 0, 1, [1, 1, 0, 0, 0, 0, 1, 1]>, <199, 4, 21, 17, 11, 0, 1, [1, 1, 0, 0, 0, 0, 1, 1]>, <200, 5, 22, 17, 11, 0, 1, [1, 1, 0, 0, 0, 0, 1, 1]>, <201, 6, 23, 17, 11, 0, 1, [1, 1, 0, 0, 0, 0, 1, 1]>, <202, 9, 26, 17, 11, 0, 1, [1, 1, 0, 0, 0, 0, 1, 1]>, <203, 10, 27, 17, 11, 0, 1, [1, 1, 0, 0, 0, 0, 1, 1]>, <204, 11, 28, 17, 11, 0, 1, [1, 1, 0, 0, 0, 0, 1, 1]>, <205, 12, 29, 17, 11, 0, 1, [1, 1, 0, 0, 0, 0, 1, 1]>, <206, 13, 30, 17, 11, 0, 1, [1, 1, 0, 0, 0, 0, 1, 1]>, <207, 14, 31, 17, 11, 0, 1, [1, 1, 0, 0, 0, 0, 1, 1]>, <208, 15, 32, 17, 11, 0, 1, [1, 1, 0, 0, 0, 0, 1, 1]>, <209, 16, 33, 17, 11, 0, 1, [1, 1, 0, 0, 0, 0, 1, 1]>, <210, 17, 34, 17, 11, 0, 1, [1, 1, 0, 0, 0, 0, 1, 1]>, <211, 18, 35, 17, 11, 0, 1, [1, 1, 0, 0, 0, 0, 1, 1]>, <212, 0, 19, 19, 12, 0, 1, [1, 1, 1, 1, 0, 0, 0, 0]>, <213, 1, 20, 19, 12, 0, 1, [1, 1, 1, 1, 0, 0, 0, 0]>, <214, 2, 21, 19, 12, 0, 1, [1, 1, 1, 1, 0, 0, 0, 0]>, <215, 3, 22, 19, 12, 0, 1, [1, 1, 1, 1, 0, 0, 0, 0]>, <216, 4, 23, 19, 12, 0, 1, [1, 1, 1, 1, 0, 0, 0, 0]>, <217, 5, 24, 19, 12, 0, 1, [1, 1, 1, 1, 0, 0, 0, 0]>, <218, 6, 25, 19, 12, 0, 1, [1, 1, 1, 1, 0, 0, 0, 0]>, <219, 7, 26, 19, 12, 0, 1, [1, 1, 1, 1, 0, 0, 0, 0]>, <220, 8, 27, 19, 12, 0, 1, [1, 1, 1, 1, 0, 0, 0, 0]>, <221, 9, 28, 19, 12, 0, 1, [1, 1, 1, 1, 0, 0, 0, 0]>, <222, 10, 29, 19, 12, 0, 1, [1, 1, 1, 1, 0, 0, 0, 0]>, <223, 11, 30, 19, 12, 0, 1, [1, 1, 1, 1, 0, 0, 0, 0]>, <224, 12, 31, 19, 12, 0, 1, [1, 1, 1, 1, 0, 0, 0, 0]>, <225, 13, 32, 19, 12, 0, 1, [1, 1, 1, 1, 0, 0, 0, 0]>, <226, 14, 33, 19, 12, 0, 1, [1, 1, 1, 1, 0, 0, 0, 0]>, <227, 15, 34, 19, 12, 0, 1, [1, 1, 1, 1, 0, 0, 0, 0]>, <228, 16, 35, 19, 12, 0, 1, [1, 1, 1, 1, 0, 0, 0, 0]>, <229, 0, 18, 18, 13, 0, 1, [1, 0, 0, 0, 0, 1, 1, 1]>, <230, 1, 19, 18, 13, 0, 1, [1, 0, 0, 0, 0, 1, 1, 1]>, <231, 2, 20, 18, 13, 0, 1, [1, 0, 0, 0, 0, 1, 1, 1]>, <232, 3, 21, 18, 13, 0, 1, [1, 0, 0, 0, 0, 1, 1, 1]>, <233, 4, 22, 18, 13, 0, 1, [1, 0, 0, 0, 0, 1, 1, 1]>, <234, 5, 23, 18, 13, 0, 1, [1, 0, 0, 0, 0, 1, 1, 1]>, <235, 6, 24, 18, 13, 0, 1, [1, 0, 0, 0, 0, 1, 1, 1]>, <236, 8, 26, 18, 13, 0, 1, [1, 0, 0, 0, 0, 1, 1, 1]>, <237, 9, 27, 18, 13, 0, 1, [1, 0, 0, 0, 0, 1, 1, 1]>, <238, 10, 28, 18, 13, 0, 1, [1, 0, 0, 0, 0, 1, 1, 1]>, <239, 11, 29, 18, 13, 0, 1, [1, 0, 0, 0, 0, 1, 1, 1]>, <240, 12, 30, 18, 13, 0, 1, [1, 0, 0, 0, 0, 1, 1, 1]>, <241, 13, 31, 18, 13, 0, 1, [1, 0, 0, 0, 0, 1, 1, 1]>, <242, 14, 32, 18, 13, 0, 1, [1, 0, 0, 0, 0, 1, 1, 1]>, <243, 15, 33, 18, 13, 0, 1, [1, 0, 0, 0, 0, 1, 1, 1]>, <244, 16, 34, 18, 13, 0, 1, [1, 0, 0, 0, 0, 1, 1, 1]>, <245, 17, 35, 18, 13, 0, 1, [1, 0, 0, 0, 0, 1, 1, 1]>, <246, 0, 21, 21, 14, 0, 0, [0, 0, 1, 1, 1, 1, 0, 0]>, <247, 1, 22, 21, 14, 0, 0, [0, 0, 1, 1, 1, 1, 0, 0]>, <248, 2, 23, 21, 14, 0, 0, [0, 0, 1, 1, 1, 1, 0, 0]>, <249, 3, 24, 21, 14, 0, 0, [0, 0, 1, 1, 1, 1, 0, 0]>, <250, 4, 25, 21, 14, 0, 0, [0, 0, 1, 1, 1, 1, 0, 0]>, <251, 5, 26, 21, 14, 0, 0, [0, 0, 1, 1, 1, 1, 0, 0]>, <252, 6, 27, 21, 14, 0, 0, [0, 0, 1, 1, 1, 1, 0, 0]>, <253, 7, 28, 21, 14, 0, 0, [0, 0, 1, 1, 1, 1, 0, 0]>, <254, 8, 29, 21, 14, 0, 0, [0, 0, 1, 1, 1, 1, 0, 0]>, <255, 9, 30, 21, 14, 0, 0, [0, 0, 1, 1, 1, 1, 0, 0]>, <256, 10, 31, 21, 14, 0, 0, [0, 0, 1, 1, 1, 1, 0, 0]>, <257, 11, 32, 21, 14, 0, 0, [0, 0, 1, 1, 1, 1, 0, 0]>, <258, 12, 33, 21, 14, 0, 0, [0, 0, 1, 1, 1, 1, 0, 0]>, <259, 13, 34, 21, 14, 0, 0, [0, 0, 1, 1, 1, 1, 0, 0]>, <260, 14, 35, 21, 14, 0, 0, [0, 0, 1, 1, 1, 1, 0, 0]>, <261, 0, 17, 17, 15, 0, 1, [1, 1, 1, 0, 0, 0, 0, 1]>, <262, 1, 18, 17, 15, 0, 1, [1, 1, 1, 0, 0, 0, 0, 1]>, <263, 2, 19, 17, 15, 0, 1, [1, 1, 1, 0, 0, 0, 0, 1]>, <264, 3, 20, 17, 15, 0, 1, [1, 1, 1, 0, 0, 0, 0, 1]>, <265, 4, 21, 17, 15, 0, 1, [1, 1, 1, 0, 0, 0, 0, 1]>, <266, 5, 22, 17, 15, 0, 1, [1, 1, 1, 0, 0, 0, 0, 1]>, <267, 6, 23, 17, 15, 0, 1, [1, 1, 1, 0, 0, 0, 0, 1]>, <268, 9, 26, 17, 15, 0, 1, [1, 1, 1, 0, 0, 0, 0, 1]>, <269, 10, 27, 17, 15, 0, 1, [1, 1, 1, 0, 0, 0, 0, 1]>, <270, 11, 28, 17, 15, 0, 1, [1, 1, 1, 0, 0, 0, 0, 1]>, <271, 12, 29, 17, 15, 0, 1, [1, 1, 1, 0, 0, 0, 0, 1]>, <272, 13, 30, 17, 15, 0, 1, [1, 1, 1, 0, 0, 0, 0, 1]>, <273, 14, 31, 17, 15, 0, 1, [1, 1, 1, 0, 0, 0, 0, 1]>, <274, 15, 32, 17, 15, 0, 1, [1, 1, 1, 0, 0, 0, 0, 1]>, <275, 16, 33, 17, 15, 0, 1, [1, 1, 1, 0, 0, 0, 0, 1]>, <276, 17, 34, 17, 15, 0, 1, [1, 1, 1, 0, 0, 0, 0, 1]>, <277, 18, 35, 17, 15, 0, 1, [1, 1, 1, 0, 0, 0, 0, 1]>, <278, 0, 20, 20, 16, 0, 0, [1, 1, 0, 0, 0, 0, 1, 1]>, <279, 1, 21, 20, 16, 0, 0, [1, 1, 0, 0, 0, 0, 1, 1]>, <280, 2, 22, 20, 16, 0, 0, [1, 1, 0, 0, 0, 0, 1, 1]>, <281, 3, 23, 20, 16, 0, 0, [1, 1, 0, 0, 0, 0, 1, 1]>, <282, 4, 24, 20, 16, 0, 0, [1, 1, 0, 0, 0, 0, 1, 1]>, <283, 5, 25, 20, 16, 0, 0, [1, 1, 0, 0, 0, 0, 1, 1]>, <284, 6, 26, 20, 16, 0, 0, [1, 1, 0, 0, 0, 0, 1, 1]>, <285, 7, 27, 20, 16, 0, 0, [1, 1, 0, 0, 0, 0, 1, 1]>, <286, 8, 28, 20, 16, 0, 0, [1, 1, 0, 0, 0, 0, 1, 1]>, <287, 9, 29, 20, 16, 0, 0, [1, 1, 0, 0, 0, 0, 1, 1]>, <288, 10, 30, 20, 16, 0, 0, [1, 1, 0, 0, 0, 0, 1, 1]>, <289, 11, 31, 20, 16, 0, 0, [1, 1, 0, 0, 0, 0, 1, 1]>, <290, 12, 32, 20, 16, 0, 0, [1, 1, 0, 0, 0, 0, 1, 1]>, <291, 13, 33, 20, 16, 0, 0, [1, 1, 0, 0, 0, 0, 1, 1]>, <292, 14, 34, 20, 16, 0, 0, [1, 1, 0, 0, 0, 0, 1, 1]>, <293, 15, 35, 20, 16, 0, 0, [1, 1, 0, 0, 0, 0, 1, 1]>, <294, 0, 20, 20, 17, 0, 1, [0, 0, 0, 0, 1, 1, 1, 1]>, <295, 1, 21, 20, 17, 0, 1, [0, 0, 0, 0, 1, 1, 1, 1]>, <296, 2, 22, 20, 17, 0, 1, [0, 0, 0, 0, 1, 1, 1, 1]>, <297, 3, 23, 20, 17, 0, 1, [0, 0, 0, 0, 1, 1, 1, 1]>, <298, 4, 24, 20, 17, 0, 1, [0, 0, 0, 0, 1, 1, 1, 1]>, <299, 5, 25, 20, 17, 0, 1, [0, 0, 0, 0, 1, 1, 1, 1]>, <300, 6, 26, 20, 17, 0, 1, [0, 0, 0, 0, 1, 1, 1, 1]>, <301, 7, 27, 20, 17, 0, 1, [0, 0, 0, 0, 1, 1, 1, 1]>, <302, 8, 28, 20, 17, 0, 1, [0, 0, 0, 0, 1, 1, 1, 1]>, <303, 9, 29, 20, 17, 0, 1, [0, 0, 0, 0, 1, 1, 1, 1]>, <304, 10, 30, 20, 17, 0, 1, [0, 0, 0, 0, 1, 1, 1, 1]>, <305, 11, 31, 20, 17, 0, 1, [0, 0, 0, 0, 1, 1, 1, 1]>, <306, 12, 32, 20, 17, 0, 1, [0, 0, 0, 0, 1, 1, 1, 1]>, <307, 13, 33, 20, 17, 0, 1, [0, 0, 0, 0, 1, 1, 1, 1]>, <308, 14, 34, 20, 17, 0, 1, [0, 0, 0, 0, 1, 1, 1, 1]>, <309, 15, 35, 20, 17, 0, 1, [0, 0, 0, 0, 1, 1, 1, 1]>, <310, 0, 21, 21, 18, 0, 1, [0, 0, 1, 1, 1, 1, 0, 0]>, <311, 1, 22, 21, 18, 0, 1, [0, 0, 1, 1, 1, 1, 0, 0]>, <312, 2, 23, 21, 18, 0, 1, [0, 0, 1, 1, 1, 1, 0, 0]>, <313, 3, 24, 21, 18, 0, 1, [0, 0, 1, 1, 1, 1, 0, 0]>, <314, 4, 25, 21, 18, 0, 1, [0, 0, 1, 1, 1, 1, 0, 0]>, <315, 5, 26, 21, 18, 0, 1, [0, 0, 1, 1, 1, 1, 0, 0]>, <316, 6, 27, 21, 18, 0, 1, [0, 0, 1, 1, 1, 1, 0, 0]>, <317, 7, 28, 21, 18, 0, 1, [0, 0, 1, 1, 1, 1, 0, 0]>, <318, 8, 29, 21, 18, 0, 1, [0, 0, 1, 1, 1, 1, 0, 0]>, <319, 9, 30, 21, 18, 0, 1, [0, 0, 1, 1, 1, 1, 0, 0]>, <320, 10, 31, 21, 18, 0, 1, [0, 0, 1, 1, 1, 1, 0, 0]>, <321, 11, 32, 21, 18, 0, 1, [0, 0, 1, 1, 1, 1, 0, 0]>, <322, 12, 33, 21, 18, 0, 1, [0, 0, 1, 1, 1, 1, 0, 0]>, <323, 13, 34, 21, 18, 0, 1, [0, 0, 1, 1, 1, 1, 0, 0]>, <324, 14, 35, 21, 18, 0, 1, [0, 0, 1, 1, 1, 1, 0, 0]>, <325, 0, 17, 17, 19, 0, 1, [1, 1, 1, 0, 0, 0, 0, 1]>, <326, 1, 18, 17, 19, 0, 1, [1, 1, 1, 0, 0, 0, 0, 1]>, <327, 2, 19, 17, 19, 0, 1, [1, 1, 1, 0, 0, 0, 0, 1]>, <328, 3, 20, 17, 19, 0, 1, [1, 1, 1, 0, 0, 0, 0, 1]>, <329, 4, 21, 17, 19, 0, 1, [1, 1, 1, 0, 0, 0, 0, 1]>, <330, 5, 22, 17, 19, 0, 1, [1, 1, 1, 0, 0, 0, 0, 1]>, <331, 6, 23, 17, 19, 0, 1, [1, 1, 1, 0, 0, 0, 0, 1]>, <332, 9, 26, 17, 19, 0, 1, [1, 1, 1, 0, 0, 0, 0, 1]>, <333, 10, 27, 17, 19, 0, 1, [1, 1, 1, 0, 0, 0, 0, 1]>, <334, 11, 28, 17, 19, 0, 1, [1, 1, 1, 0, 0, 0, 0, 1]>, <335, 12, 29, 17, 19, 0, 1, [1, 1, 1, 0, 0, 0, 0, 1]>, <336, 13, 30, 17, 19, 0, 1, [1, 1, 1, 0, 0, 0, 0, 1]>, <337, 14, 31, 17, 19, 0, 1, [1, 1, 1, 0, 0, 0, 0, 1]>, <338, 15, 32, 17, 19, 0, 1, [1, 1, 1, 0, 0, 0, 0, 1]>, <339, 16, 33, 17, 19, 0, 1, [1, 1, 1, 0, 0, 0, 0, 1]>, <340, 17, 34, 17, 19, 0, 1, [1, 1, 1, 0, 0, 0, 0, 1]>, <341, 18, 35, 17, 19, 0, 1, [1, 1, 1, 0, 0, 0, 0, 1]>, <342, 0, 20, 20, 20, 0, 0, [0, 0, 0, 1, 1, 1, 1, 0]>, <343, 1, 21, 20, 20, 0, 0, [0, 0, 0, 1, 1, 1, 1, 0]>, <344, 2, 22, 20, 20, 0, 0, [0, 0, 0, 1, 1, 1, 1, 0]>, <345, 3, 23, 20, 20, 0, 0, [0, 0, 0, 1, 1, 1, 1, 0]>, <346, 4, 24, 20, 20, 0, 0, [0, 0, 0, 1, 1, 1, 1, 0]>, <347, 5, 25, 20, 20, 0, 0, [0, 0, 0, 1, 1, 1, 1, 0]>, <348, 6, 26, 20, 20, 0, 0, [0, 0, 0, 1, 1, 1, 1, 0]>, <349, 7, 27, 20, 20, 0, 0, [0, 0, 0, 1, 1, 1, 1, 0]>, <350, 8, 28, 20, 20, 0, 0, [0, 0, 0, 1, 1, 1, 1, 0]>, <351, 9, 29, 20, 20, 0, 0, [0, 0, 0, 1, 1, 1, 1, 0]>, <352, 10, 30, 20, 20, 0, 0, [0, 0, 0, 1, 1, 1, 1, 0]>, <353, 11, 31, 20, 20, 0, 0, [0, 0, 0, 1, 1, 1, 1, 0]>, <354, 12, 32, 20, 20, 0, 0, [0, 0, 0, 1, 1, 1, 1, 0]>, <355, 13, 33, 20, 20, 0, 0, [0, 0, 0, 1, 1, 1, 1, 0]>, <356, 14, 34, 20, 20, 0, 0, [0, 0, 0, 1, 1, 1, 1, 0]>, <357, 15, 35, 20, 20, 0, 0, [0, 0, 0, 1, 1, 1, 1, 0]>, <358, 0, 22, 22, 21, 0, 0, [0, 1, 1, 1, 1, 0, 0, 0]>, <359, 1, 23, 22, 21, 0, 0, [0, 1, 1, 1, 1, 0, 0, 0]>, <360, 2, 24, 22, 21, 0, 0, [0, 1, 1, 1, 1, 0, 0, 0]>, <361, 3, 25, 22, 21, 0, 0, [0, 1, 1, 1, 1, 0, 0, 0]>, <362, 4, 26, 22, 21, 0, 0, [0, 1, 1, 1, 1, 0, 0, 0]>, <363, 5, 27, 22, 21, 0, 0, [0, 1, 1, 1, 1, 0, 0, 0]>, <364, 6, 28, 22, 21, 0, 0, [0, 1, 1, 1, 1, 0, 0, 0]>, <365, 7, 29, 22, 21, 0, 0, [0, 1, 1, 1, 1, 0, 0, 0]>, <366, 8, 30, 22, 21, 0, 0, [0, 1, 1, 1, 1, 0, 0, 0]>, <367, 9, 31, 22, 21, 0, 0, [0, 1, 1, 1, 1, 0, 0, 0]>, <368, 10, 32, 22, 21, 0, 0, [0, 1, 1, 1, 1, 0, 0, 0]>, <369, 11, 33, 22, 21, 0, 0, [0, 1, 1, 1, 1, 0, 0, 0]>, <370, 12, 34, 22, 21, 0, 0, [0, 1, 1, 1, 1, 0, 0, 0]>, <371, 13, 35, 22, 21, 0, 0, [0, 1, 1, 1, 1, 0, 0, 0]>};
